
Gurobi 5.6.0 (linux64) logging started Wed Mar 26 17:30:18 2014


Gurobi 5.6.0 (linux64) logging started Wed Mar 26 17:31:40 2014


Gurobi 5.6.0 (linux64) logging started Wed Mar 26 17:32:02 2014


Gurobi 5.6.0 (linux64) logging started Wed Mar 26 17:32:25 2014


Gurobi 5.6.0 (linux64) logging started Wed Mar 26 17:32:38 2014


Gurobi 5.6.0 (linux64) logging started Wed Mar 26 17:33:14 2014


Gurobi 5.6.0 (linux64) logging started Wed Mar 26 17:33:33 2014


Gurobi 5.6.0 (linux64) logging started Wed Mar 26 17:34:05 2014


Gurobi 5.6.0 (linux64) logging started Wed Mar 26 17:34:25 2014


Gurobi 5.6.0 (linux64) logging started Wed Mar 26 17:38:58 2014


Gurobi 5.6.0 (linux64) logging started Wed Mar 26 17:40:41 2014


Gurobi 5.6.0 (linux64) logging started Wed Mar 26 17:41:47 2014


Gurobi 5.6.0 (linux64) logging started Wed Mar 26 17:42:39 2014


Gurobi 5.6.0 (linux64) logging started Wed Mar 26 17:42:51 2014


Gurobi 5.6.0 (linux64) logging started Wed Mar 26 17:43:15 2014


Gurobi 5.6.0 (linux64) logging started Wed Mar 26 17:44:59 2014


Gurobi 5.6.0 (linux64) logging started Wed Mar 26 17:45:18 2014


Gurobi 5.6.0 (linux64) logging started Wed Mar 26 17:45:46 2014


Gurobi 5.6.0 (linux64) logging started Wed Mar 26 17:52:13 2014


Gurobi 5.6.0 (linux64) logging started Wed Mar 26 17:55:03 2014


Gurobi 5.6.0 (linux64) logging started Wed Mar 26 17:55:30 2014


Gurobi 5.6.0 (linux64) logging started Wed Mar 26 17:55:52 2014


Gurobi 5.6.0 (linux64) logging started Wed Mar 26 17:57:25 2014


Gurobi 5.6.0 (linux64) logging started Wed Mar 26 17:57:30 2014


Gurobi 5.6.0 (linux64) logging started Wed Mar 26 18:00:32 2014


Gurobi 5.6.0 (linux64) logging started Wed Mar 26 18:02:34 2014

